NPROCS=0
This instance is clustered!
Gurobi Optimizer version 9.0.0 build v9.0.0rc2 (linux64)
Optimize a model with 42 rows, 442 columns and 882 nonzeros
Model fingerprint: 0x5cc5578f
Variable types: 1 continuous, 441 integer (441 binary)
Coefficient statistics:
  Matrix range     [1e+00, 1e+00]
  Objective range  [1e+00, 4e+02]
  Bounds range     [1e+00, 1e+00]
  RHS range        [1e+00, 1e+00]
Presolve removed 2 rows and 60 columns
Presolve time: 0.01s
Presolved: 40 rows, 382 columns, 762 nonzeros
Variable types: 1 continuous, 381 integer (381 binary)

Root relaxation: objective 8.313929e+02, 29 iterations, 0.00 seconds

    Nodes    |    Current Node    |     Objective Bounds      |     Work
 Expl Unexpl |  Obj  Depth IntInf | Incumbent    BestBd   Gap | It/Node Time

     0     0 1164.94209    0   28          - 1164.94209      -     -    0s
 done with super cut 0
 done with super cut 1
 done with super cut 2
     0     0 1178.30418    0   31          - 1178.30418      -     -    0s
 done with super cut 3
 done with super cut 4
H    0     0                    1600.0605638 1178.30418  26.4%     -    4s
 done with super cut 5
 done with super cut 6
 done with super cut 7
 done with super cut 8
     0     0 1190.10425    0    6 1600.06056 1190.10425  25.6%     -   14s
 done with super cut 9
 done with super cut 10
H    0     0                    1485.6094434 1190.10425  19.9%     -   24s
     0     0 1206.94766    0   40 1485.60944 1206.94766  18.8%     -   24s
     0     2 1240.76781    0   40 1485.60944 1240.76781  16.5%     -   24s
*  176   144              12    1437.3021015 1244.31924  13.4%   7.4   24s
*  220   165              15    1389.0449711 1244.31924  10.4%   7.2   24s
*  410   203              13    1344.2512623 1257.87294  6.43%   6.7   24s
*  492   179              10    1320.5675679 1260.62597  4.54%   7.0   24s
*  814    13              10    1293.0421496 1281.95992  0.86%   6.1   24s

Cutting planes:
  Lazy constraints: 111

Explored 855 nodes (5238 simplex iterations) in 24.34 seconds
Thread count was 12 (of 12 available processors)

Solution count 7: 1293.04 1320.57 1344.25 ... 1600.06

Optimal solution found (tolerance 1.00e-04)
Best objective 1.293042149635e+03, best bound 1.293042149635e+03, gap 0.0000%

User-callback calls 2049, time in user-callback 24.11 sec
/projects/academic/josewalt/caigao/RRARP_BD/BendersDecomp/ret/model_outs/n_19_e_2_algo_4.out
 =====>>>>> Solution is written to file in <../ret/model_outs> !!!
===>> All Done!
